NAME : random588900
COMMENT: random generated with id 588900
TYPE : TSP
DIMENSION : 21
EDGE_WEIGHT_TYPE : EUC_2D
NODE_COORD_SECTION
1 15.425154 6.841882
2 3.222132 11.032403
3 2.317681 13.627968
4 16.851119 5.270543
5 14.420079 11.789778
6 16.786627 11.251845
7 1.344680 17.203036
8 17.702395 12.014433
9 16.794363 12.707328
10 17.783750 18.877125
11 1.591647 9.393609
12 10.230149 7.921070
13 19.533878 10.948333
14 6.173932 2.522059
15 8.152846 3.637112
16 18.360770 3.577999
17 10.478994 1.582902
18 14.610402 12.796675
19 15.210870 11.461521
20 18.067218 9.630949
21 3.251299 14.853845
EOF
